(declare-const c_0 Real)
(declare-const c_1 Real)
(declare-const c_2 Real)
(declare-const c_3 Real)
(declare-const c_4 Real)
(declare-const c_5 Real)
(declare-const c_6 Real)
(declare-const c_7 Real)
(declare-const c_8 Real)
(declare-const c_9 Real)
(declare-const c_10 Real)
(declare-const c_11 Real)
(declare-const c_12 Real)
(declare-const c_13 Real)
(declare-const c_14 Real)
(declare-const c_15 Real)
(declare-const c_16 Real)
(declare-const c_17 Real)
(declare-const s_0 Real)
(declare-const s_1 Real)
(declare-const s_2 Real)
(declare-const s_3 Real)
(declare-const s_4 Real)
(declare-const s_5 Real)
(declare-const s_6 Real)
(declare-const s_7 Real)
(declare-const s_8 Real)
(declare-const s_9 Real)
(declare-const s_10 Real)
(declare-const s_11 Real)
(declare-const s_12 Real)
(declare-const s_13 Real)
(declare-const s_14 Real)
(declare-const s_15 Real)
(declare-const s_16 Real)
(declare-const s_17 Real)
(assert (forall ((i Real) (up Real) ) (=> (and (>= (+ (* 1024 1) (* 1 i ) ) 0) (>= (+ (* 1023 1) (* (- 1) i ) ) 0) (>= (+ (* 1024 1) (* 1 up ) ) 0) (>= (+ (* 1023 1) (* (- 1) up ) ) 0) ) (>= (+ (* 1 i s_1 ) (* 1 i s_2 up ) (* 1 i i s_3 ) (* 1 s_0 ) (* 1 s_4 up ) (* 1 s_5 up up ) ) 0) )))
(assert (forall ((i Real) (up Real) ) (=> (and (>= (+ (* 1024 1) (* 1 i ) ) 0) (>= (+ (* 1023 1) (* (- 1) i ) ) 0) (>= (+ (* 1024 1) (* 1 up ) ) 0) (>= (+ (* 1023 1) (* (- 1) up ) ) 0) ) (>= (+ (* 1 c_0 ) (* 1 c_1 i ) (* 1 c_2 i up ) (* 1 c_3 i i ) (* 1 c_4 up ) (* 1 c_5 up up ) ) 0) )))
(assert (forall ((i Real) (up Real) ) (=> (and (>= (+ (* 1023 1) (* (- 1) up ) ) 0) (>= (+ (* 1024 1) (* 1 up ) ) 0) (>= (+ (* 1023 1) (* (- 1) i ) ) 0) (>= (+ (* 1024 1) (* 1 i ) ) 0) (>= (+ (* 1 i s_1 ) (* 1 i s_2 up ) (* 1 i i s_3 ) (* 1 s_0 ) (* 1 s_4 up ) (* 1 s_5 up up ) ) 0) ) (>= (+ (* 1 i s_7 ) (* 1 i i s_9 ) (* 1 s_6 ) ) 0) )))
(assert (forall ((i Real) (up Real) ) (=> (and (>= (+ (* 1023 1) (* (- 1) up ) ) 0) (>= (+ (* 1024 1) (* 1 up ) ) 0) (>= (+ (* 1023 1) (* (- 1) i ) ) 0) (>= (+ (* 1024 1) (* 1 i ) ) 0) (>= (+ (* 1 i s_1 ) (* 1 i s_2 up ) (* 1 i i s_3 ) (* 1 s_0 ) (* 1 s_4 up ) (* 1 s_5 up up ) ) 0) ) (>= (+ (* 1 c_6 ) (* 1 c_7 i ) (* 1 c_9 i i ) ) 0) )))
(assert (forall ((i Real) (up Real) ) (=> (and (>= (+ (* 1023 1) (* (- 1) up ) ) 0) (>= (+ (* 1024 1) (* 1 up ) ) 0) (>= (+ (* 1023 1) (* (- 1) i ) ) 0) (>= (+ (* 1024 1) (* 1 i ) ) 0) (>= (+ (* 1 i s_1 ) (* 1 i s_2 up ) (* 1 i i s_3 ) (* 1 s_0 ) (* 1 s_4 up ) (* 1 s_5 up up ) ) 0) ) (>= (+ (* (- 1) 1) (* 1 c_0 ) (* 1 c_1 i ) (* 1 c_2 i up ) (* 1 c_3 i i ) (* 1 c_4 up ) (* 1 c_5 up up ) (* (- 1) c_6 ) (* (- 1) c_7 i ) (* (- 1) c_9 i i ) ) 0) )))
(assert (forall ((i Real) (up Real) ) (=> (and (>= 0 0) (>= (* (- 1) i ) 0) (>= (+ (* (- 10) 1) (* 1 i ) ) 0) (>= (* 1 i ) 0) (>= (+ (* 10 1) (* (- 1) i ) ) 0) (>= (* 1 up ) 0) (>= (+ (* 1024 1) (* 1 i ) (* (- 1025) up ) ) 0) (>= (+ (* 1 i s_7 ) (* 1 i s_8 up ) (* 1 i i s_9 ) (* 1 s_10 up ) (* 1 s_11 up up ) (* 1 s_6 ) ) 0) ) (>= (+ (* 1 i s_7 ) (* 1 i s_8 ) (* 2 i s_9 ) (* 1 i i s_9 ) (* 1 s_10 ) (* 1 s_11 ) (* 1 s_6 ) (* 1 s_7 ) (* 1 s_8 ) (* 1 s_9 ) ) 0) )))
(assert (forall ((i Real) (up Real) ) (=> (and (>= 0 0) (>= (* (- 1) i ) 0) (>= (+ (* (- 10) 1) (* 1 i ) ) 0) (>= (* 1 i ) 0) (>= (+ (* 10 1) (* (- 1) i ) ) 0) (>= (* 1 up ) 0) (>= (+ (* 1024 1) (* 1 i ) (* (- 1025) up ) ) 0) (>= (+ (* 1 i s_7 ) (* 1 i s_8 up ) (* 1 i i s_9 ) (* 1 s_10 up ) (* 1 s_11 up up ) (* 1 s_6 ) ) 0) ) (>= (+ (* 1 c_10 ) (* 1 c_11 ) (* 1 c_6 ) (* 1 c_7 ) (* 1 c_7 i ) (* 1 c_8 ) (* 1 c_8 i ) (* 1 c_9 ) (* 2 c_9 i ) (* 1 c_9 i i ) ) 0) )))
(assert (forall ((i Real) (up Real) ) (=> (and (>= 0 0) (>= (* (- 1) i ) 0) (>= (+ (* (- 10) 1) (* 1 i ) ) 0) (>= (* 1 i ) 0) (>= (+ (* 10 1) (* (- 1) i ) ) 0) (>= (* 1 up ) 0) (>= (+ (* 1024 1) (* 1 i ) (* (- 1025) up ) ) 0) (>= (+ (* 1 i s_7 ) (* 1 i s_8 up ) (* 1 i i s_9 ) (* 1 s_10 up ) (* 1 s_11 up up ) (* 1 s_6 ) ) 0) ) (>= (+ (* (- 1) 1) (* (- 1) c_10 ) (* 1 c_10 up ) (* (- 1) c_11 ) (* 1 c_11 up up ) (* (- 1) c_7 ) (* (- 1) c_8 ) (* (- 1) c_8 i ) (* 1 c_8 i up ) (* (- 1) c_9 ) (* (- 2) c_9 i ) ) 0) )))
(assert (forall ((i Real) (up Real) ) (=> (and (>= (* (- 1) 1) 0) (>= (* (- 1) i ) 0) (>= (+ (* (- 10) 1) (* 1 i ) ) 0) (>= (* 1 i ) 0) (>= (+ (* 10 1) (* (- 1) i ) ) 0) (>= (* 1 up ) 0) (>= (+ (* 1024 1) (* 1 i ) (* (- 1025) up ) ) 0) (>= (+ (* 1 i s_7 ) (* 1 i s_8 up ) (* 1 i i s_9 ) (* 1 s_10 up ) (* 1 s_11 up up ) (* 1 s_6 ) ) 0) ) (>= (+ (* 1 i s_7 ) (* 1 i s_8 ) (* (- 2) i s_9 ) (* 1 i i s_9 ) (* 1 s_10 ) (* 1 s_11 ) (* 1 s_6 ) (* (- 1) s_7 ) (* (- 1) s_8 ) (* 1 s_9 ) ) 0) )))
(assert (forall ((i Real) (up Real) ) (=> (and (>= (* (- 1) 1) 0) (>= (* (- 1) i ) 0) (>= (+ (* (- 10) 1) (* 1 i ) ) 0) (>= (* 1 i ) 0) (>= (+ (* 10 1) (* (- 1) i ) ) 0) (>= (* 1 up ) 0) (>= (+ (* 1024 1) (* 1 i ) (* (- 1025) up ) ) 0) (>= (+ (* 1 i s_7 ) (* 1 i s_8 up ) (* 1 i i s_9 ) (* 1 s_10 up ) (* 1 s_11 up up ) (* 1 s_6 ) ) 0) ) (>= (+ (* 1 c_10 ) (* 1 c_11 ) (* 1 c_6 ) (* (- 1) c_7 ) (* 1 c_7 i ) (* (- 1) c_8 ) (* 1 c_8 i ) (* 1 c_9 ) (* (- 2) c_9 i ) (* 1 c_9 i i ) ) 0) )))
(assert (forall ((i Real) (up Real) ) (=> (and (>= (* (- 1) 1) 0) (>= (* (- 1) i ) 0) (>= (+ (* (- 10) 1) (* 1 i ) ) 0) (>= (* 1 i ) 0) (>= (+ (* 10 1) (* (- 1) i ) ) 0) (>= (* 1 up ) 0) (>= (+ (* 1024 1) (* 1 i ) (* (- 1025) up ) ) 0) (>= (+ (* 1 i s_7 ) (* 1 i s_8 up ) (* 1 i i s_9 ) (* 1 s_10 up ) (* 1 s_11 up up ) (* 1 s_6 ) ) 0) ) (>= (+ (* (- 1) 1) (* (- 1) c_10 ) (* 1 c_10 up ) (* (- 1) c_11 ) (* 1 c_11 up up ) (* 1 c_7 ) (* 1 c_8 ) (* (- 1) c_8 i ) (* 1 c_8 i up ) (* (- 1) c_9 ) (* 2 c_9 i ) ) 0) )))
(assert (forall ((i Real) (up Real) ) (=> (and (>= (* (- 1) 1) 0) (>= (+ (* (- 1) 1) (* 1 i ) ) 0) (>= (+ (* (- 10) 1) (* 1 i ) ) 0) (>= (* 1 i ) 0) (>= (+ (* 10 1) (* (- 1) i ) ) 0) (>= (* 1 up ) 0) (>= (+ (* 1024 1) (* 1 i ) (* (- 1025) up ) ) 0) (>= (+ (* 1 i s_7 ) (* 1 i s_8 up ) (* 1 i i s_9 ) (* 1 s_10 up ) (* 1 s_11 up up ) (* 1 s_6 ) ) 0) ) (>= (+ (* 1 i s_7 ) (* 2 i s_9 ) (* 1 i i s_9 ) (* 1 s_6 ) (* 1 s_7 ) (* 1 s_9 ) ) 0) )))
(assert (forall ((i Real) (up Real) ) (=> (and (>= (* (- 1) 1) 0) (>= (+ (* (- 1) 1) (* 1 i ) ) 0) (>= (+ (* (- 10) 1) (* 1 i ) ) 0) (>= (* 1 i ) 0) (>= (+ (* 10 1) (* (- 1) i ) ) 0) (>= (* 1 up ) 0) (>= (+ (* 1024 1) (* 1 i ) (* (- 1025) up ) ) 0) (>= (+ (* 1 i s_7 ) (* 1 i s_8 up ) (* 1 i i s_9 ) (* 1 s_10 up ) (* 1 s_11 up up ) (* 1 s_6 ) ) 0) ) (>= (+ (* 1 c_6 ) (* 1 c_7 ) (* 1 c_7 i ) (* 1 c_9 ) (* 2 c_9 i ) (* 1 c_9 i i ) ) 0) )))
(assert (forall ((i Real) (up Real) ) (=> (and (>= (* (- 1) 1) 0) (>= (+ (* (- 1) 1) (* 1 i ) ) 0) (>= (+ (* (- 10) 1) (* 1 i ) ) 0) (>= (* 1 i ) 0) (>= (+ (* 10 1) (* (- 1) i ) ) 0) (>= (* 1 up ) 0) (>= (+ (* 1024 1) (* 1 i ) (* (- 1025) up ) ) 0) (>= (+ (* 1 i s_7 ) (* 1 i s_8 up ) (* 1 i i s_9 ) (* 1 s_10 up ) (* 1 s_11 up up ) (* 1 s_6 ) ) 0) ) (>= (+ (* (- 1) 1) (* 1 c_10 up ) (* 1 c_11 up up ) (* (- 1) c_7 ) (* 1 c_8 i up ) (* (- 1) c_9 ) (* (- 2) c_9 i ) ) 0) )))
(assert (forall ((i Real) (up Real) ) (=> (and (>= 0 0) (>= (+ (* (- 1) 1) (* 1 i ) ) 0) (>= (+ (* (- 10) 1) (* 1 i ) ) 0) (>= (* 1 i ) 0) (>= (+ (* 10 1) (* (- 1) i ) ) 0) (>= (* 1 up ) 0) (>= (+ (* 1024 1) (* 1 i ) (* (- 1025) up ) ) 0) (>= (+ (* 1 i s_7 ) (* 1 i s_8 up ) (* 1 i i s_9 ) (* 1 s_10 up ) (* 1 s_11 up up ) (* 1 s_6 ) ) 0) ) (>= (+ (* 1 i s_7 ) (* (- 2) i s_9 ) (* 1 i i s_9 ) (* 1 s_6 ) (* (- 1) s_7 ) (* 1 s_9 ) ) 0) )))
(assert (forall ((i Real) (up Real) ) (=> (and (>= 0 0) (>= (+ (* (- 1) 1) (* 1 i ) ) 0) (>= (+ (* (- 10) 1) (* 1 i ) ) 0) (>= (* 1 i ) 0) (>= (+ (* 10 1) (* (- 1) i ) ) 0) (>= (* 1 up ) 0) (>= (+ (* 1024 1) (* 1 i ) (* (- 1025) up ) ) 0) (>= (+ (* 1 i s_7 ) (* 1 i s_8 up ) (* 1 i i s_9 ) (* 1 s_10 up ) (* 1 s_11 up up ) (* 1 s_6 ) ) 0) ) (>= (+ (* 1 c_6 ) (* (- 1) c_7 ) (* 1 c_7 i ) (* 1 c_9 ) (* (- 2) c_9 i ) (* 1 c_9 i i ) ) 0) )))
(assert (forall ((i Real) (up Real) ) (=> (and (>= 0 0) (>= (+ (* (- 1) 1) (* 1 i ) ) 0) (>= (+ (* (- 10) 1) (* 1 i ) ) 0) (>= (* 1 i ) 0) (>= (+ (* 10 1) (* (- 1) i ) ) 0) (>= (* 1 up ) 0) (>= (+ (* 1024 1) (* 1 i ) (* (- 1025) up ) ) 0) (>= (+ (* 1 i s_7 ) (* 1 i s_8 up ) (* 1 i i s_9 ) (* 1 s_10 up ) (* 1 s_11 up up ) (* 1 s_6 ) ) 0) ) (>= (+ (* (- 1) 1) (* 1 c_10 up ) (* 1 c_11 up up ) (* 1 c_7 ) (* 1 c_8 i up ) (* (- 1) c_9 ) (* 2 c_9 i ) ) 0) )))
(assert (forall ((i Real) (up Real) ) (=> (and (>= 0 0) (>= (* (- 1) i ) 0) (>= (+ (* 9 1) (* (- 1) i ) ) 0) (>= (* 1 i ) 0) (>= (+ (* 10 1) (* (- 1) i ) ) 0) (>= (* 1 up ) 0) (>= (+ (* 1024 1) (* 1 i ) (* (- 1025) up ) ) 0) (>= (+ (* 1 i s_7 ) (* 1 i s_8 up ) (* 1 i i s_9 ) (* 1 s_10 up ) (* 1 s_11 up up ) (* 1 s_6 ) ) 0) ) (>= (+ (* 1 i s_7 ) (* 1 i s_8 ) (* 2 i s_9 ) (* 1 i i s_9 ) (* 1 s_10 ) (* 1 s_11 ) (* 1 s_6 ) (* 1 s_7 ) (* 1 s_8 ) (* 1 s_9 ) ) 0) )))
(assert (forall ((i Real) (up Real) ) (=> (and (>= 0 0) (>= (* (- 1) i ) 0) (>= (+ (* 9 1) (* (- 1) i ) ) 0) (>= (* 1 i ) 0) (>= (+ (* 10 1) (* (- 1) i ) ) 0) (>= (* 1 up ) 0) (>= (+ (* 1024 1) (* 1 i ) (* (- 1025) up ) ) 0) (>= (+ (* 1 i s_7 ) (* 1 i s_8 up ) (* 1 i i s_9 ) (* 1 s_10 up ) (* 1 s_11 up up ) (* 1 s_6 ) ) 0) ) (>= (+ (* 1 c_10 ) (* 1 c_11 ) (* 1 c_6 ) (* 1 c_7 ) (* 1 c_7 i ) (* 1 c_8 ) (* 1 c_8 i ) (* 1 c_9 ) (* 2 c_9 i ) (* 1 c_9 i i ) ) 0) )))
(assert (forall ((i Real) (up Real) ) (=> (and (>= 0 0) (>= (* (- 1) i ) 0) (>= (+ (* 9 1) (* (- 1) i ) ) 0) (>= (* 1 i ) 0) (>= (+ (* 10 1) (* (- 1) i ) ) 0) (>= (* 1 up ) 0) (>= (+ (* 1024 1) (* 1 i ) (* (- 1025) up ) ) 0) (>= (+ (* 1 i s_7 ) (* 1 i s_8 up ) (* 1 i i s_9 ) (* 1 s_10 up ) (* 1 s_11 up up ) (* 1 s_6 ) ) 0) ) (>= (+ (* (- 1) 1) (* (- 1) c_10 ) (* 1 c_10 up ) (* (- 1) c_11 ) (* 1 c_11 up up ) (* (- 1) c_7 ) (* (- 1) c_8 ) (* (- 1) c_8 i ) (* 1 c_8 i up ) (* (- 1) c_9 ) (* (- 2) c_9 i ) ) 0) )))
(assert (forall ((i Real) (up Real) ) (=> (and (>= (* (- 1) 1) 0) (>= (* (- 1) i ) 0) (>= (+ (* 9 1) (* (- 1) i ) ) 0) (>= (* 1 i ) 0) (>= (+ (* 10 1) (* (- 1) i ) ) 0) (>= (* 1 up ) 0) (>= (+ (* 1024 1) (* 1 i ) (* (- 1025) up ) ) 0) (>= (+ (* 1 i s_7 ) (* 1 i s_8 up ) (* 1 i i s_9 ) (* 1 s_10 up ) (* 1 s_11 up up ) (* 1 s_6 ) ) 0) ) (>= (+ (* 1 i s_7 ) (* 1 i s_8 ) (* (- 2) i s_9 ) (* 1 i i s_9 ) (* 1 s_10 ) (* 1 s_11 ) (* 1 s_6 ) (* (- 1) s_7 ) (* (- 1) s_8 ) (* 1 s_9 ) ) 0) )))
(assert (forall ((i Real) (up Real) ) (=> (and (>= (* (- 1) 1) 0) (>= (* (- 1) i ) 0) (>= (+ (* 9 1) (* (- 1) i ) ) 0) (>= (* 1 i ) 0) (>= (+ (* 10 1) (* (- 1) i ) ) 0) (>= (* 1 up ) 0) (>= (+ (* 1024 1) (* 1 i ) (* (- 1025) up ) ) 0) (>= (+ (* 1 i s_7 ) (* 1 i s_8 up ) (* 1 i i s_9 ) (* 1 s_10 up ) (* 1 s_11 up up ) (* 1 s_6 ) ) 0) ) (>= (+ (* 1 c_10 ) (* 1 c_11 ) (* 1 c_6 ) (* (- 1) c_7 ) (* 1 c_7 i ) (* (- 1) c_8 ) (* 1 c_8 i ) (* 1 c_9 ) (* (- 2) c_9 i ) (* 1 c_9 i i ) ) 0) )))
(assert (forall ((i Real) (up Real) ) (=> (and (>= (* (- 1) 1) 0) (>= (* (- 1) i ) 0) (>= (+ (* 9 1) (* (- 1) i ) ) 0) (>= (* 1 i ) 0) (>= (+ (* 10 1) (* (- 1) i ) ) 0) (>= (* 1 up ) 0) (>= (+ (* 1024 1) (* 1 i ) (* (- 1025) up ) ) 0) (>= (+ (* 1 i s_7 ) (* 1 i s_8 up ) (* 1 i i s_9 ) (* 1 s_10 up ) (* 1 s_11 up up ) (* 1 s_6 ) ) 0) ) (>= (+ (* (- 1) 1) (* (- 1) c_10 ) (* 1 c_10 up ) (* (- 1) c_11 ) (* 1 c_11 up up ) (* 1 c_7 ) (* 1 c_8 ) (* (- 1) c_8 i ) (* 1 c_8 i up ) (* (- 1) c_9 ) (* 2 c_9 i ) ) 0) )))
(assert (forall ((i Real) (up Real) ) (=> (and (>= (+ (* (- 1) 1) (* 1 up ) ) 0) (>= (+ (* (- 1) 1) (* 1 i ) ) 0) (>= (+ (* 9 1) (* (- 1) i ) ) 0) (>= (* 1 i ) 0) (>= (+ (* 10 1) (* (- 1) i ) ) 0) (>= (* 1 up ) 0) (>= (+ (* 1024 1) (* 1 i ) (* (- 1025) up ) ) 0) (>= (+ (* 1 i s_7 ) (* 1 i s_8 up ) (* 1 i i s_9 ) (* 1 s_10 up ) (* 1 s_11 up up ) (* 1 s_6 ) ) 0) ) (>= (+ (* 1 i s_7 ) (* 1 i s_8 up ) (* 2 i s_9 ) (* 1 i i s_9 ) (* 1 s_10 up ) (* 1 s_11 up up ) (* 1 s_6 ) (* 1 s_7 ) (* 1 s_8 up ) (* 1 s_9 ) ) 0) )))
(assert (forall ((i Real) (up Real) ) (=> (and (>= (+ (* (- 1) 1) (* 1 up ) ) 0) (>= (+ (* (- 1) 1) (* 1 i ) ) 0) (>= (+ (* 9 1) (* (- 1) i ) ) 0) (>= (* 1 i ) 0) (>= (+ (* 10 1) (* (- 1) i ) ) 0) (>= (* 1 up ) 0) (>= (+ (* 1024 1) (* 1 i ) (* (- 1025) up ) ) 0) (>= (+ (* 1 i s_7 ) (* 1 i s_8 up ) (* 1 i i s_9 ) (* 1 s_10 up ) (* 1 s_11 up up ) (* 1 s_6 ) ) 0) ) (>= (+ (* 1 c_10 up ) (* 1 c_11 up up ) (* 1 c_6 ) (* 1 c_7 ) (* 1 c_7 i ) (* 1 c_8 i up ) (* 1 c_8 up ) (* 1 c_9 ) (* 2 c_9 i ) (* 1 c_9 i i ) ) 0) )))
(assert (forall ((i Real) (up Real) ) (=> (and (>= (+ (* (- 1) 1) (* 1 up ) ) 0) (>= (+ (* (- 1) 1) (* 1 i ) ) 0) (>= (+ (* 9 1) (* (- 1) i ) ) 0) (>= (* 1 i ) 0) (>= (+ (* 10 1) (* (- 1) i ) ) 0) (>= (* 1 up ) 0) (>= (+ (* 1024 1) (* 1 i ) (* (- 1025) up ) ) 0) (>= (+ (* 1 i s_7 ) (* 1 i s_8 up ) (* 1 i i s_9 ) (* 1 s_10 up ) (* 1 s_11 up up ) (* 1 s_6 ) ) 0) ) (>= (+ (* (- 1) 1) (* (- 1) c_7 ) (* (- 1) c_8 up ) (* (- 1) c_9 ) (* (- 2) c_9 i ) ) 0) )))
(assert (forall ((i Real) (up Real) ) (=> (and (>= (* (- 1) up ) 0) (>= (+ (* (- 1) 1) (* 1 i ) ) 0) (>= (+ (* 9 1) (* (- 1) i ) ) 0) (>= (* 1 i ) 0) (>= (+ (* 10 1) (* (- 1) i ) ) 0) (>= (* 1 up ) 0) (>= (+ (* 1024 1) (* 1 i ) (* (- 1025) up ) ) 0) (>= (+ (* 1 i s_7 ) (* 1 i s_8 up ) (* 1 i i s_9 ) (* 1 s_10 up ) (* 1 s_11 up up ) (* 1 s_6 ) ) 0) ) (>= (+ (* 1 i s_7 ) (* 1 i s_8 up ) (* (- 2) i s_9 ) (* 1 i i s_9 ) (* 1 s_10 up ) (* 1 s_11 up up ) (* 1 s_6 ) (* (- 1) s_7 ) (* (- 1) s_8 up ) (* 1 s_9 ) ) 0) )))
(assert (forall ((i Real) (up Real) ) (=> (and (>= (* (- 1) up ) 0) (>= (+ (* (- 1) 1) (* 1 i ) ) 0) (>= (+ (* 9 1) (* (- 1) i ) ) 0) (>= (* 1 i ) 0) (>= (+ (* 10 1) (* (- 1) i ) ) 0) (>= (* 1 up ) 0) (>= (+ (* 1024 1) (* 1 i ) (* (- 1025) up ) ) 0) (>= (+ (* 1 i s_7 ) (* 1 i s_8 up ) (* 1 i i s_9 ) (* 1 s_10 up ) (* 1 s_11 up up ) (* 1 s_6 ) ) 0) ) (>= (+ (* 1 c_10 up ) (* 1 c_11 up up ) (* 1 c_6 ) (* (- 1) c_7 ) (* 1 c_7 i ) (* 1 c_8 i up ) (* (- 1) c_8 up ) (* 1 c_9 ) (* (- 2) c_9 i ) (* 1 c_9 i i ) ) 0) )))
(assert (forall ((i Real) (up Real) ) (=> (and (>= (* (- 1) up ) 0) (>= (+ (* (- 1) 1) (* 1 i ) ) 0) (>= (+ (* 9 1) (* (- 1) i ) ) 0) (>= (* 1 i ) 0) (>= (+ (* 10 1) (* (- 1) i ) ) 0) (>= (* 1 up ) 0) (>= (+ (* 1024 1) (* 1 i ) (* (- 1025) up ) ) 0) (>= (+ (* 1 i s_7 ) (* 1 i s_8 up ) (* 1 i i s_9 ) (* 1 s_10 up ) (* 1 s_11 up up ) (* 1 s_6 ) ) 0) ) (>= (+ (* (- 1) 1) (* 1 c_7 ) (* 1 c_8 up ) (* (- 1) c_9 ) (* 2 c_9 i ) ) 0) )))
(assert (forall ((i Real) (up Real) ) (=> (and (>= (+ (* (- 1) 1) (* (- 1) i ) ) 0) (>= (* 1 up ) 0) (>= (+ (* 1024 1) (* 1 i ) (* (- 1025) up ) ) 0) (>= (+ (* 1 i s_7 ) (* 1 i s_8 up ) (* 1 i i s_9 ) (* 1 s_10 up ) (* 1 s_11 up up ) (* 1 s_6 ) ) 0) ) (>= (+ (* 1 i s_13 ) (* 1 i s_14 up ) (* 1 i i s_15 ) (* 1 s_12 ) (* 1 s_16 up ) (* 1 s_17 up up ) ) 0) )))
(assert (forall ((i Real) (up Real) ) (=> (and (>= (+ (* (- 1) 1) (* (- 1) i ) ) 0) (>= (* 1 up ) 0) (>= (+ (* 1024 1) (* 1 i ) (* (- 1025) up ) ) 0) (>= (+ (* 1 i s_7 ) (* 1 i s_8 up ) (* 1 i i s_9 ) (* 1 s_10 up ) (* 1 s_11 up up ) (* 1 s_6 ) ) 0) ) (>= (+ (* 1 c_12 ) (* 1 c_13 i ) (* 1 c_14 i up ) (* 1 c_15 i i ) (* 1 c_16 up ) (* 1 c_17 up up ) ) 0) )))
(assert (forall ((i Real) (up Real) ) (=> (and (>= (+ (* (- 11) 1) (* 1 i ) ) 0) (>= (* 1 up ) 0) (>= (+ (* 1024 1) (* 1 i ) (* (- 1025) up ) ) 0) (>= (+ (* 1 i s_7 ) (* 1 i s_8 up ) (* 1 i i s_9 ) (* 1 s_10 up ) (* 1 s_11 up up ) (* 1 s_6 ) ) 0) ) (>= (+ (* 1 i s_13 ) (* 1 i s_14 up ) (* 1 i i s_15 ) (* 1 s_12 ) (* 1 s_16 up ) (* 1 s_17 up up ) ) 0) )))
(assert (forall ((i Real) (up Real) ) (=> (and (>= (+ (* (- 11) 1) (* 1 i ) ) 0) (>= (* 1 up ) 0) (>= (+ (* 1024 1) (* 1 i ) (* (- 1025) up ) ) 0) (>= (+ (* 1 i s_7 ) (* 1 i s_8 up ) (* 1 i i s_9 ) (* 1 s_10 up ) (* 1 s_11 up up ) (* 1 s_6 ) ) 0) ) (>= (+ (* 1 c_12 ) (* 1 c_13 i ) (* 1 c_14 i up ) (* 1 c_15 i i ) (* 1 c_16 up ) (* 1 c_17 up up ) ) 0) )))

(check-sat)
(get-model)
